(set-logic ALL)
;; BEGIN: smt_of_spec test

(declare-fun main (Int (Array Int String)) Int)
(declare-fun err () Bool)

(declare-fun i () Int)

(declare-fun a () (Array Int Int))

(declare-fun len_a () Int)

(declare-fun n () Int)

(declare-fun argc () Int)

(declare-fun argv () (Array Int String))

(declare-fun realWorld_data () (Array String (Array Int String)))

(declare-fun realWorld_linenum () (Array String Int))

(declare-fun realWorld_opened () (Set String))

(define-fun states_equal
  ( (err Bool)
    (i Int)
    (a (Array Int Int))
    (len_a Int)
    (n Int)
    (argc Int)
    (argv (Array Int String))
    (realWorld_data (Array String (Array Int String)))
    (realWorld_linenum (Array String Int))
    (realWorld_opened (Set String))
    (err_new Bool)
    (i_new Int)
    (a_new (Array Int Int))
    (len_a_new Int)
    (n_new Int)
    (argc_new Int)
    (argv_new (Array Int String))
    (realWorld_data_new (Array String (Array Int String)))
    (realWorld_linenum_new (Array String Int))
    (realWorld_opened_new (Set String)) )
  Bool
  (or (and err err_new) (and (not err) (not err_new) (and (= i i_new) (= a a_new) (= len_a len_a_new) (= n n_new) (= argc argc_new) (= argv argv_new) (= realWorld_data realWorld_data_new) (= realWorld_linenum realWorld_linenum_new) (= realWorld_opened realWorld_opened_new))))
)

(define-fun postcondition
  ( (len_a_new Int)
    (a_new (Array Int Int))
    (n_new Int) )
  Bool
  (and (and (> n_new 0) (< n_new len_a_new)) (<= (select a_new n) 1))
)

(define-fun m1_dummyMethod_1_pre_condition
  ( (err Bool)
    (i Int)
    (a (Array Int Int))
    (len_a Int)
    (n Int)
    (argc Int)
    (argv (Array Int String))
    (realWorld_data (Array String (Array Int String)))
    (realWorld_linenum (Array String Int))
    (realWorld_opened (Set String)) )
  Bool
  true
)

(define-fun m1_dummyMethod_1_post_condition
  ( (err Bool)
    (i Int)
    (a (Array Int Int))
    (len_a Int)
    (n Int)
    (argc Int)
    (argv (Array Int String))
    (realWorld_data (Array String (Array Int String)))
    (realWorld_linenum (Array String Int))
    (realWorld_opened (Set String))
    (err_new Bool)
    (i_new Int)
    (a_new (Array Int Int))
    (len_a_new Int)
    (n_new Int)
    (argc_new Int)
    (argv_new (Array Int String))
    (realWorld_data_new (Array String (Array Int String)))
    (realWorld_linenum_new (Array String Int))
    (realWorld_opened_new (Set String))
    (m1_dummyMethod_1_result Bool) )
  Bool
  (or (and err err_new) (and (not err) (not err_new) true (and (let ((realWorld_data_1 realWorld_data) (realWorld_linenum_1 realWorld_linenum) (realWorld_opened_1 realWorld_opened)) (let ((i_1 n)) (ite (> (select a i_1) 0) (let ((a_1 (store a i_1 (- 1)))) (and (= a_new a_1) (= realWorld_opened_new realWorld_opened_1) (= realWorld_linenum_new realWorld_linenum_1) (= i_new i_1) (= realWorld_data_new realWorld_data_1))) (let ((a_1 (store a i_1 1))) (and (= a_new a_1) (= realWorld_opened_new realWorld_opened_1) (= realWorld_linenum_new realWorld_linenum_1) (= i_new i_1) (= realWorld_data_new realWorld_data_1)))))) (= len_a_new len_a) (= n_new n) (= argc_new argc) (= argv_new argv) (= m1_dummyMethod_1_result true))) (and (not err) err_new (not true)))
)

(define-fun m1_dummyMethod_2_pre_condition
  ( (err Bool)
    (i Int)
    (a (Array Int Int))
    (len_a Int)
    (n Int)
    (argc Int)
    (argv (Array Int String))
    (realWorld_data (Array String (Array Int String)))
    (realWorld_linenum (Array String Int))
    (realWorld_opened (Set String)) )
  Bool
  true
)

(define-fun m1_dummyMethod_2_post_condition
  ( (err Bool)
    (i Int)
    (a (Array Int Int))
    (len_a Int)
    (n Int)
    (argc Int)
    (argv (Array Int String))
    (realWorld_data (Array String (Array Int String)))
    (realWorld_linenum (Array String Int))
    (realWorld_opened (Set String))
    (err_new Bool)
    (i_new Int)
    (a_new (Array Int Int))
    (len_a_new Int)
    (n_new Int)
    (argc_new Int)
    (argv_new (Array Int String))
    (realWorld_data_new (Array String (Array Int String)))
    (realWorld_linenum_new (Array String Int))
    (realWorld_opened_new (Set String))
    (m1_dummyMethod_2_result Bool) )
  Bool
  (or (and err err_new) (and (not err) (not err_new) true (and (let ((realWorld_data_1 realWorld_data) (realWorld_linenum_1 realWorld_linenum) (realWorld_opened_1 realWorld_opened)) (and (= realWorld_opened_new realWorld_opened_1) (= realWorld_linenum_new realWorld_linenum_1) (= realWorld_data_new realWorld_data_1))) (= i_new i) (= a_new a) (= len_a_new len_a) (= n_new n) (= argc_new argc) (= argv_new argv) (= m1_dummyMethod_2_result true))) (and (not err) err_new (not true)))
)

(define-fun m2_dummyMethod_1_pre_condition
  ( (err Bool)
    (i Int)
    (a (Array Int Int))
    (len_a Int)
    (n Int)
    (argc Int)
    (argv (Array Int String))
    (realWorld_data (Array String (Array Int String)))
    (realWorld_linenum (Array String Int))
    (realWorld_opened (Set String)) )
  Bool
  true
)

(define-fun m2_dummyMethod_1_post_condition
  ( (err Bool)
    (i Int)
    (a (Array Int Int))
    (len_a Int)
    (n Int)
    (argc Int)
    (argv (Array Int String))
    (realWorld_data (Array String (Array Int String)))
    (realWorld_linenum (Array String Int))
    (realWorld_opened (Set String))
    (err_new Bool)
    (i_new Int)
    (a_new (Array Int Int))
    (len_a_new Int)
    (n_new Int)
    (argc_new Int)
    (argv_new (Array Int String))
    (realWorld_data_new (Array String (Array Int String)))
    (realWorld_linenum_new (Array String Int))
    (realWorld_opened_new (Set String))
    (m2_dummyMethod_1_result Bool) )
  Bool
  (or (and err err_new) (and (not err) (not err_new) true (and (let ((realWorld_data_1 realWorld_data) (realWorld_linenum_1 realWorld_linenum) (realWorld_opened_1 realWorld_opened)) (let ((i_1 n)) (ite (> (select a i_1) 0) (let ((a_1 (store a i_1 (- 1)))) (and (= a_new a_1) (= realWorld_opened_new realWorld_opened_1) (= realWorld_linenum_new realWorld_linenum_1) (= i_new i_1) (= realWorld_data_new realWorld_data_1))) (let ((a_1 (store a i_1 1))) (and (= a_new a_1) (= realWorld_opened_new realWorld_opened_1) (= realWorld_linenum_new realWorld_linenum_1) (= i_new i_1) (= realWorld_data_new realWorld_data_1)))))) (= len_a_new len_a) (= n_new n) (= argc_new argc) (= argv_new argv) (= m2_dummyMethod_1_result true))) (and (not err) err_new (not true)))
)

(define-fun m2_dummyMethod_2_pre_condition
  ( (err Bool)
    (i Int)
    (a (Array Int Int))
    (len_a Int)
    (n Int)
    (argc Int)
    (argv (Array Int String))
    (realWorld_data (Array String (Array Int String)))
    (realWorld_linenum (Array String Int))
    (realWorld_opened (Set String)) )
  Bool
  true
)

(define-fun m2_dummyMethod_2_post_condition
  ( (err Bool)
    (i Int)
    (a (Array Int Int))
    (len_a Int)
    (n Int)
    (argc Int)
    (argv (Array Int String))
    (realWorld_data (Array String (Array Int String)))
    (realWorld_linenum (Array String Int))
    (realWorld_opened (Set String))
    (err_new Bool)
    (i_new Int)
    (a_new (Array Int Int))
    (len_a_new Int)
    (n_new Int)
    (argc_new Int)
    (argv_new (Array Int String))
    (realWorld_data_new (Array String (Array Int String)))
    (realWorld_linenum_new (Array String Int))
    (realWorld_opened_new (Set String))
    (m2_dummyMethod_2_result Bool) )
  Bool
  (or (and err err_new) (and (not err) (not err_new) true (and (let ((realWorld_data_1 realWorld_data) (realWorld_linenum_1 realWorld_linenum) (realWorld_opened_1 realWorld_opened)) (and (= realWorld_opened_new realWorld_opened_1) (= realWorld_linenum_new realWorld_linenum_1) (= realWorld_data_new realWorld_data_1))) (= i_new i) (= a_new a) (= len_a_new len_a) (= n_new n) (= argc_new argc) (= argv_new argv) (= m2_dummyMethod_2_result true))) (and (not err) err_new (not true)))
)

;; END: smt_of_spec test
(declare-fun err1 () Bool)
(declare-fun err2 () Bool)
(declare-fun err12 () Bool)
(declare-fun err21 () Bool)
(declare-fun i1 () Int)
(declare-fun i2 () Int)
(declare-fun i12 () Int)
(declare-fun i21 () Int)
(declare-fun a1 () (Array Int Int))
(declare-fun a2 () (Array Int Int))
(declare-fun a12 () (Array Int Int))
(declare-fun a21 () (Array Int Int))
(declare-fun len_a1 () Int)
(declare-fun len_a2 () Int)
(declare-fun len_a12 () Int)
(declare-fun len_a21 () Int)
(declare-fun n1 () Int)
(declare-fun n2 () Int)
(declare-fun n12 () Int)
(declare-fun n21 () Int)
(declare-fun argc1 () Int)
(declare-fun argc2 () Int)
(declare-fun argc12 () Int)
(declare-fun argc21 () Int)
(declare-fun argv1 () (Array Int String))
(declare-fun argv2 () (Array Int String))
(declare-fun argv12 () (Array Int String))
(declare-fun argv21 () (Array Int String))
(declare-fun realWorld_data1 () (Array String (Array Int String)))
(declare-fun realWorld_data2 () (Array String (Array Int String)))
(declare-fun realWorld_data12 () (Array String (Array Int String)))
(declare-fun realWorld_data21 () (Array String (Array Int String)))
(declare-fun realWorld_linenum1 () (Array String Int))
(declare-fun realWorld_linenum2 () (Array String Int))
(declare-fun realWorld_linenum12 () (Array String Int))
(declare-fun realWorld_linenum21 () (Array String Int))
(declare-fun realWorld_opened1 () (Set String))
(declare-fun realWorld_opened2 () (Set String))
(declare-fun realWorld_opened12 () (Set String))
(declare-fun realWorld_opened21 () (Set String))
(declare-fun result_0_1 () Bool)
(declare-fun result_0_21 () Bool)
(declare-fun result_0_2 () Bool)
(declare-fun result_0_12 () Bool)

(define-fun oper () Bool (and 
  (m1_dummyMethod_1_pre_condition err i a len_a n argc argv realWorld_data realWorld_linenum realWorld_opened)
  (m1_dummyMethod_1_post_condition err i a len_a n argc argv realWorld_data realWorld_linenum realWorld_opened err1 i1 a1 len_a1 n1 argc1 argv1 realWorld_data1 realWorld_linenum1 realWorld_opened1 result_0_1)
  (m1_dummyMethod_1_pre_condition err2 i2 a2 len_a2 n2 argc2 argv2 realWorld_data2 realWorld_linenum2 realWorld_opened2)
  (m1_dummyMethod_1_post_condition err2 i2 a2 len_a2 n2 argc2 argv2 realWorld_data2 realWorld_linenum2 realWorld_opened2 err21 i21 a21 len_a21 n21 argc21 argv21 realWorld_data21 realWorld_linenum21 realWorld_opened21 result_0_21)
  (m2_dummyMethod_2_pre_condition err i a len_a n argc argv realWorld_data realWorld_linenum realWorld_opened)
  (m2_dummyMethod_2_post_condition err i a len_a n argc argv realWorld_data realWorld_linenum realWorld_opened err2 i2 a2 len_a2 n2 argc2 argv2 realWorld_data2 realWorld_linenum2 realWorld_opened2 result_0_2)
  (m2_dummyMethod_2_pre_condition err1 i1 a1 len_a1 n1 argc1 argv1 realWorld_data1 realWorld_linenum1 realWorld_opened1)
  (m2_dummyMethod_2_post_condition err1 i1 a1 len_a1 n1 argc1 argv1 realWorld_data1 realWorld_linenum1 realWorld_opened1 err12 i12 a12 len_a12 n12 argc12 argv12 realWorld_data12 realWorld_linenum12 realWorld_opened12 result_0_12)
  (or (not err12) (not err21))
))

(define-fun bowtie () Bool (and
   (= result_0_1 result_0_21)
   (= result_0_2 result_0_12)
   (postcondition n12 a12 len_a12)
   (states_equal err12 i12 a12 len_a12 n12 argc12 argv12 realWorld_data12 realWorld_linenum12 realWorld_opened12 err21 i21 a21 len_a21 n21 argc21 argv21 realWorld_data21 realWorld_linenum21 realWorld_opened21)
))

(assert (not (=> (and oper (and (and (> n 0) (< n len_a)) true)) bowtie)))
(check-sat)
(get-model)